Instance name : SB_bar-n100-6
Authors : 
Date : 
Reference 
Solution
Route 1 : 22 43 93 47 72 97 30 48 34 25 40 84 18 75 80 90 98 68 5 17 67 49 2 52 99 39 27 77 33 55 83 89 
Route 2 : 38 88 41 16 66 37 91 1 51 87 11 23 73 9 45 59 35 14 85 64 61 15 95 36 86 46 65 96 
Route 3 : 20 29 70 79 12 21 62 71 6 56 
Route 4 : 4 31 32 54 81 7 57 82 8 28 42 19 92 44 13 69 94 26 63 76 3 78 10 58 60 24 50 53 100 74 
